data/mps_files/q3/24_0.mps
NAME foo
ROWS
 N  OBJ
 E  allocateEach[1]
 E  allocateEach[2]
 E  allocateEach[3]
 E  allocateEach[4]
 E  allocateAllCash
 G  findWorstP[1,2]
 G  findWorstP[2,1]
COLUMNS
    z         OBJ       1
    z         findWorstP[1,2]  1
    z         findWorstP[2,1]  1
    cashProportion[1]  allocateAllCash  1
    cashProportion[1]  findWorstP[1,2]  1.6323332571577816e-02
    cashProportion[1]  findWorstP[2,1]  -2.3453257657488628e-02
    cashProportion[2]  allocateAllCash  1
    cashProportion[2]  findWorstP[1,2]  -1.6323332571577816e-02
    cashProportion[2]  findWorstP[2,1]  2.3453257657488628e-02
    MARKER    'MARKER'                 'INTORG'
    x[1,1]    allocateEach[1]  1
    x[1,1]    findWorstP[1,2]  2.5546015474519279e-01
    x[1,1]    findWorstP[2,1]  -1.2791406726394297e-01
    x[1,2]    allocateEach[2]  1
    x[1,2]    findWorstP[1,2]  1.3643041363324737e-01
    x[1,2]    findWorstP[2,1]  -3.2562502931657211e-01
    x[1,3]    allocateEach[3]  1
    x[1,3]    findWorstP[1,2]  3.1265711207600144e-01
    x[1,3]    findWorstP[2,1]  -4.2455087011585912e-01
    x[1,4]    allocateEach[4]  1
    x[1,4]    findWorstP[1,2]  2.7912898697398064e-01
    x[1,4]    findWorstP[2,1]  -9.8456775646137251e-02
    x[2,1]    allocateEach[1]  1
    x[2,1]    findWorstP[1,2]  -2.5546015474519279e-01
    x[2,1]    findWorstP[2,1]  1.2791406726394297e-01
    x[2,2]    allocateEach[2]  1
    x[2,2]    findWorstP[1,2]  -1.3643041363324737e-01
    x[2,2]    findWorstP[2,1]  3.2562502931657211e-01
    x[2,3]    allocateEach[3]  1
    x[2,3]    findWorstP[1,2]  -3.1265711207600144e-01
    x[2,3]    findWorstP[2,1]  4.2455087011585912e-01
    x[2,4]    allocateEach[4]  1
    x[2,4]    findWorstP[1,2]  -2.7912898697398064e-01
    x[2,4]    findWorstP[2,1]  9.8456775646137251e-02
    MARKER    'MARKER'                 'INTEND'
RHS
    RHS1      allocateEach[1]  1
    RHS1      allocateEach[2]  1
    RHS1      allocateEach[3]  1
    RHS1      allocateEach[4]  1
    RHS1      allocateAllCash  1
BOUNDS
 UP BND1      z         1
 MI BND1      cashProportion[1]
 UP BND1      cashProportion[1]  1
 MI BND1      cashProportion[2]
 UP BND1      cashProportion[2]  1
 BV BND1      x[1,1]  
 BV BND1      x[1,2]  
 BV BND1      x[1,3]  
 BV BND1      x[1,4]  
 BV BND1      x[2,1]  
 BV BND1      x[2,2]  
 BV BND1      x[2,3]  
 BV BND1      x[2,4]  
ENDATA
